8	6
5  4 1 4 2 5 4 7 5 6 4 1 4 2 2 3 9 6 5 4 2 5 4 7 5 10 6 8 4 1 8 2 10 3 5 5 3 4 2 7 3 5 5 8 6 9
4 4 1 2 3 6 5 4 6 8 4 2 6 3 3 4 7 5 5 4 1 8 2 7 3 10 4 6 4 3 7 4 3 5 6 6 5
5 4 2 6 4 8 5 9 6 10 4 1 6 2 8 4 4 5 7 4 1 11 2 6 3 7 6 8 5 1 6 2 4 3 8 5 9 6 4 4 2 4 3 9 4 7 5 5
3 4 1 8 2 6 5 9 6 11 4 2 4 3 6 5 5 6 4 4 1 3 2 5 3 3 5 8
4 4 2 5 4 4 5 7 6 9 4 1 12 2 6 3 9 5 8 4 3 6 4 5 5 7 6 8 5 1 4 2 4 3 8 5 6 6 5
4 4 3 8 4 12 5 10 6 7 4 1 7 2 9 4 8 6 10 4 1 4 2 4 3 6 6 8 4 1 9 3 10 4 9 5 7
5 4 1 10 2 5 4 6 6 7 4 1 5 4 9 5 7 6 8 5 1 9 2 12 3 7 4 10 6 6 4 3 3 4 5 5 7 6 9 4 2 4 3 9 4 6 5 5
3 3 1 8 5 10 6 6 5 1 5 2 6 3 6 5 8 6 9 4 1 4 2 9 3 8 4 6